\ Model shortest_path
\ LP format - for model browsing. Use MPS format to capture full model detail.
Minimize
  5.922 x[5_0,5^0] + 8.37497271637347 x[5_1,5^0] + 5.922 x[5_1,5^1]
   + 10.25720488242289 x[5_2,5^0] + 8.37497271637347 x[5_2,5^1]
   + 5.922 x[5_2,5^2] + 0.987 x[1_0,1^0] + 5.583315144248981 x[2_0,2^0]
   + 3.948 x[2_0,2^1] + 9.87 x[6_0,6^0] + 13.95828786062245 x[6_1,6^0]
   + 9.87 x[6_1,6^1] + 17.09534147070482 x[6_2,6^0]
   + 13.95828786062245 x[6_2,6^1] + 9.87 x[6_2,6^2]
   + 2.79165757212449 x[3_0,3^0] + 1.974 x[3_0,3^1]
   + 4.187486358186735 x[4_0,4^0] + 2.961 x[4_0,4^1] + 17.766 y[7_0,7^0]
   + 25.12491814912041 y[7_1,7^0] + 30.77161464726867 y[7_2,7^0]
   + 35.532 y[7_3,7^0] + 5.922 y[5_0,5^0] + 8.37497271637347 y[5_1,5^0]
   + 10.25720488242289 y[5_2,5^0] + 5.922 y[5_1,5^1]
   + 8.37497271637347 y[5_2,5^1] + 5.922 y[5_2,5^2] + 9.87 y[6_0,6^0]
   + 13.95828786062245 y[6_1,6^0] + 17.09534147070482 y[6_2,6^0]
   + 9.87 y[6_1,6^1] + 13.95828786062245 y[6_2,6^1] + 9.87 y[6_2,6^2]
Subject To
 UB[5^0,7_0]: x[5^0,7_0] - 4 y[5^0,7_0] <= 0
 UB[6^0,7_0]: x[6^0,7_0] - 4 y[6^0,7_0] <= 0
 UB[5^1,7_1]: x[5^1,7_1] - 4 y[5^1,7_1] <= 0
 UB[6^1,7_1]: x[6^1,7_1] - 4 y[6^1,7_1] <= 0
 UB[5^2,7_2]: x[5^2,7_2] - 4 y[5^2,7_2] <= 0
 UB[6^2,7_2]: x[6^2,7_2] - 4 y[6^2,7_2] <= 0
 UB[5^3,7_3]: x[5^3,7_3] - 4 y[5^3,7_3] <= 0
 UB[6^3,7_3]: x[6^3,7_3] - 4 y[6^3,7_3] <= 0
 UB[7_0,7^0]: x[7_0,7^0] - 4 y[7_0,7^0] <= 0
 UB[7_1,7^0]: x[7_1,7^0] - 4 y[7_1,7^0] <= 0
 UB[7_2,7^0]: x[7_2,7^0] - 4 y[7_2,7^0] <= 0
 UB[7_3,7^0]: x[7_3,7^0] - 4 y[7_3,7^0] <= 0
 UB[1^0,5_0]: x[1^0,5_0] - 4 y[1^0,5_0] <= 0
 UB[2^0,5_0]: x[2^0,5_0] - 4 y[2^0,5_0] <= 0
 UB[1^1,5_1]: x[1^1,5_1] - 4 y[1^1,5_1] <= 0
 UB[2^1,5_1]: x[2^1,5_1] - 4 y[2^1,5_1] <= 0
 UB[2^2,5_2]: x[2^2,5_2] - 4 y[2^2,5_2] <= 0
 UB[5_0,5^0]: x[5_0,5^0] - 4 y[5_0,5^0] <= 0
 UB[5_1,5^0]: x[5_1,5^0] - 4 y[5_1,5^0] <= 0
 UB[5_2,5^0]: x[5_2,5^0] - 4 y[5_2,5^0] <= 0
 UB[5_0,5^1]: x[5_0,5^1] - 4 y[5_0,5^1] <= 0
 UB[5_1,5^1]: x[5_1,5^1] - 4 y[5_1,5^1] <= 0
 UB[5_2,5^1]: x[5_2,5^1] - 4 y[5_2,5^1] <= 0
 UB[5_1,5^2]: x[5_1,5^2] - 4 y[5_1,5^2] <= 0
 UB[5_2,5^2]: x[5_2,5^2] - 4 y[5_2,5^2] <= 0
 UB[5_2,5^3]: x[5_2,5^3] - 4 y[5_2,5^3] <= 0
 UB[3^0,6_0]: x[3^0,6_0] - 4 y[3^0,6_0] <= 0
 UB[4^0,6_0]: x[4^0,6_0] - 4 y[4^0,6_0] <= 0
 UB[3^1,6_1]: x[3^1,6_1] - 4 y[3^1,6_1] <= 0
 UB[4^1,6_1]: x[4^1,6_1] - 4 y[4^1,6_1] <= 0
 UB[3^2,6_2]: x[3^2,6_2] - 4 y[3^2,6_2] <= 0
 UB[4^2,6_2]: x[4^2,6_2] - 4 y[4^2,6_2] <= 0
 UB[6_0,6^0]: x[6_0,6^0] - 4 y[6_0,6^0] <= 0
 UB[6_1,6^0]: x[6_1,6^0] - 4 y[6_1,6^0] <= 0
 UB[6_2,6^0]: x[6_2,6^0] - 4 y[6_2,6^0] <= 0
 UB[6_0,6^1]: x[6_0,6^1] - 4 y[6_0,6^1] <= 0
 UB[6_1,6^1]: x[6_1,6^1] - 4 y[6_1,6^1] <= 0
 UB[6_2,6^1]: x[6_2,6^1] - 4 y[6_2,6^1] <= 0
 UB[6_1,6^2]: x[6_1,6^2] - 4 y[6_1,6^2] <= 0
 UB[6_2,6^2]: x[6_2,6^2] - 4 y[6_2,6^2] <= 0
 UB[6_2,6^3]: x[6_2,6^3] - 4 y[6_2,6^3] <= 0
 netflow[7_0]: x[7_0,7^0] - x[5^0,7_0] - x[6^0,7_0] = 0
 netflow[7_1]: x[7_1,7^0] - x[5^1,7_1] - x[6^1,7_1] = 0
 netflow[7_2]: x[7_2,7^0] - x[5^2,7_2] - x[6^2,7_2] = 0
 netflow[7_3]: x[7_3,7^0] - x[5^3,7_3] - x[6^3,7_3] = 0
 netflow[7^0]: - x[7_0,7^0] - x[7_1,7^0] - x[7_2,7^0] - x[7_3,7^0] = -4
 netflow[5_0]: x[5_0,5^0] + x[5_0,5^1] - x[1^0,5_0] - x[2^0,5_0] = 0
 netflow[5_1]: x[5_1,5^0] + x[5_1,5^1] + x[5_1,5^2] - x[1^1,5_1]
   - x[2^1,5_1] = 0
 netflow[5_2]: x[5_2,5^0] + x[5_2,5^1] + x[5_2,5^2] + x[5_2,5^3]
   - x[2^2,5_2] = 0
 netflow[5^0]: - x[5_0,5^0] - x[5_1,5^0] - x[5_2,5^0] + x[5^0,7_0] = 0
 netflow[5^1]: - x[5_0,5^1] - x[5_1,5^1] - x[5_2,5^1] + x[5^1,7_1] = 0
 netflow[5^2]: - x[5_1,5^2] - x[5_2,5^2] + x[5^2,7_2] = 0
 netflow[5^3]: - x[5_2,5^3] + x[5^3,7_3] = 0
 netflow[1_0]: x[1_0,1^0] + x[1_0,1^1] = 1
 netflow[1^0]: - x[1_0,1^0] + x[1^0,5_0] = 0
 netflow[1^1]: - x[1_0,1^1] + x[1^1,5_1] = 0
 netflow[2_0]: x[2_0,2^0] + x[2_0,2^1] + x[2_0,2^2] = 1
 netflow[2^0]: - x[2_0,2^0] + x[2^0,5_0] = 0
 netflow[2^1]: - x[2_0,2^1] + x[2^1,5_1] = 0
 netflow[2^2]: - x[2_0,2^2] + x[2^2,5_2] = 0
 netflow[6_0]: x[6_0,6^0] + x[6_0,6^1] - x[3^0,6_0] - x[4^0,6_0] = 0
 netflow[6_1]: x[6_1,6^0] + x[6_1,6^1] + x[6_1,6^2] - x[3^1,6_1]
   - x[4^1,6_1] = 0
 netflow[6_2]: x[6_2,6^0] + x[6_2,6^1] + x[6_2,6^2] + x[6_2,6^3]
   - x[3^2,6_2] - x[4^2,6_2] = 0
 netflow[6^0]: - x[6_0,6^0] - x[6_1,6^0] - x[6_2,6^0] + x[6^0,7_0] = 0
 netflow[6^1]: - x[6_0,6^1] - x[6_1,6^1] - x[6_2,6^1] + x[6^1,7_1] = 0
 netflow[6^2]: - x[6_1,6^2] - x[6_2,6^2] + x[6^2,7_2] = 0
 netflow[6^3]: - x[6_2,6^3] + x[6^3,7_3] = 0
 netflow[3_0]: x[3_0,3^0] + x[3_0,3^1] + x[3_0,3^2] = 1
 netflow[3^0]: - x[3_0,3^0] + x[3^0,6_0] = 0
 netflow[3^1]: - x[3_0,3^1] + x[3^1,6_1] = 0
 netflow[3^2]: - x[3_0,3^2] + x[3^2,6_2] = 0
 netflow[4_0]: x[4_0,4^0] + x[4_0,4^1] + x[4_0,4^2] = 1
 netflow[4^0]: - x[4_0,4^0] + x[4^0,6_0] = 0
 netflow[4^1]: - x[4_0,4^1] + x[4^1,6_1] = 0
 netflow[4^2]: - x[4_0,4^2] + x[4^2,6_2] = 0
Bounds
Binaries
 y[5^0,7_0] y[6^0,7_0] y[5^1,7_1] y[6^1,7_1] y[5^2,7_2] y[6^2,7_2]
 y[5^3,7_3] y[6^3,7_3] y[7_0,7^0] y[7_1,7^0] y[7_2,7^0] y[7_3,7^0]
 y[1^0,5_0] y[2^0,5_0] y[1^1,5_1] y[2^1,5_1] y[2^2,5_2] y[5_0,5^0]
 y[5_1,5^0] y[5_2,5^0] y[5_0,5^1] y[5_1,5^1] y[5_2,5^1] y[5_1,5^2]
 y[5_2,5^2] y[5_2,5^3] y[3^0,6_0] y[4^0,6_0] y[3^1,6_1] y[4^1,6_1]
 y[3^2,6_2] y[4^2,6_2] y[6_0,6^0] y[6_1,6^0] y[6_2,6^0] y[6_0,6^1]
 y[6_1,6^1] y[6_2,6^1] y[6_1,6^2] y[6_2,6^2] y[6_2,6^3]
End
